DIMENSION :9
NODE_COORD_SECTION
1 37.88274397048602 27.68633990566518
2 83.15741001594807 45.89470427897052
3 31.067136095669497 -25.17260196304909
4 52.99085306411061 97.31588529737013
5 -83.52524340967777 -71.1892765435615
6 -24.25163613914674 98.51311487327229
7 -47.42830204997874 56.74500986168428
8 -13.490683910481266 98.5912888744457
9 -5.881131004337959 38.52309805153419
EOF
